10	36
0	1	28
0	2	76
0	6	39
0	7	97
0	8	41
0	9	20
1	2	92
1	3	29
1	4	11
1	5	15
1	6	10
1	7	47
1	8	32
1	9	37
2	3	65
2	4	83
2	5	9
2	7	4
2	8	73
3	4	15
3	6	59
3	7	75
3	8	15
4	5	43
4	6	38
4	7	34
4	8	31
4	9	37
5	6	78
5	7	70
5	8	52
5	9	87
6	7	57
6	9	24
7	8	22
7	9	45
